data;


param d:= 100;
param r:=5;
param p:=0.780000;
param M:=1000;
param U:=
         1         1        5.474377e-01
         2         1       -3.286000e-01
         3         1        2.010429e-01
         4         1        3.406900e-01
         5         1        6.015962e-01
         6         1        6.039155e-02
         7         1       -1.483096e+00
         8         1       -3.610201e-01
         9         1        1.851127e+00
        10         1       -1.617305e-01
        11         1       -5.292789e-01
        12         1        5.122196e-01
        13         1       -1.907113e+00
        14         1        1.624740e+00
        15         1        3.844823e-01
        16         1        6.099303e-01
        17         1       -2.128008e+00
        18         1        1.861864e+00
        19         1        5.868491e-01
        20         1        2.803063e-01
        21         1       -7.952259e-01
        22         1       -1.016035e+00
        23         1       -1.229436e+00
        24         1        1.051887e+00
        25         1        1.529914e-01
        26         1       -3.713370e-01
        27         1        1.471253e+00
        28         1        1.248911e+00
        29         1        1.038473e+00
        30         1       -1.774639e-01
        31         1        1.520371e+00
        32         1       -1.994115e-04
        33         1       -4.746747e-01
        34         1        1.468204e+00
        35         1       -1.141764e+00
        36         1        1.342765e+00
        37         1        8.529229e-02
        38         1       -6.540925e-01
        39         1       -2.254813e-01
        40         1        2.611975e+00
        41         1        7.485932e-02
        42         1       -1.184229e+00
        43         1       -2.611133e+00
        44         1       -1.680922e-01
        45         1       -4.981909e-01
        46         1       -5.576182e-01
        47         1       -7.175716e-01
        48         1        1.347969e-01
        49         1       -1.938606e-01
        50         1       -3.299339e-01
        51         1        7.502187e-01
        52         1        8.070605e-01
        53         1        1.009180e-01
        54         1        8.728576e-03
        55         1        2.575011e-01
        56         1        7.757943e-01
        57         1       -2.038600e+00
        58         1        1.593619e-01
        59         1       -5.922343e-01
        60         1       -3.276607e-01
        61         1       -1.471639e+00
        62         1        4.856509e-01
        63         1        1.149625e+00
        64         1       -1.150099e+00
        65         1       -2.757258e-01
        66         1        8.338496e-01
        67         1       -1.448220e+00
        68         1        3.850840e-01
        69         1       -1.393378e+00
        70         1       -3.560843e-01
        71         1       -1.306846e-02
        72         1        5.286811e-01
        73         1       -1.383571e+00
        74         1        3.938303e-01
        75         1       -3.637741e-01
        76         1        1.617684e-01
        77         1        8.981926e-01
        78         1        3.228723e-01
        79         1       -2.804315e-01
        80         1        4.144437e-01
        81         1       -6.107857e-01
        82         1        1.138843e+00
        83         1       -3.876189e-01
        84         1       -9.284287e-01
        85         1        1.062417e-01
        86         1        3.673811e-01
        87         1        7.460264e-02
        88         1       -1.149484e+00
        89         1        3.095657e-02
        90         1        1.491262e-01
        91         1       -1.709531e+00
        92         1        8.393352e-01
        93         1       -8.712627e-01
        94         1        1.756456e-02
        95         1        7.468477e-01
        96         1        1.445730e+00
        97         1        6.435093e-01
        98         1       -1.299023e+00
        99         1       -7.726092e-01
       100         1       -1.009176e-01
         1         2       -4.446004e-02
         2         2       -6.079186e-01
         3         2       -1.677386e+00
         4         2       -5.384727e-01
         5         2        1.725726e+00
         6         2        5.079505e-01
         7         2       -5.444065e-01
         8         2        8.158951e-01
         9         2       -6.591655e-01
        10         2        7.100356e-01
        11         2       -5.019959e-01
        12         2       -1.793963e+00
        13         2       -1.121350e-01
        14         2       -4.368321e-01
        15         2        3.416056e-01
        16         2       -7.676977e-01
        17         2        5.738030e-01
        18         2        1.504832e+00
        19         2        9.026028e-01
        20         2       -1.725338e+00
        21         2        9.725751e-01
        22         2       -1.555827e+00
        23         2        5.309699e-01
        24         2       -9.882932e-01
        25         2       -4.511655e-01
        26         2       -7.888420e-01
        27         2        6.911031e-01
        28         2        1.803544e+00
        29         2        9.489813e-01
        30         2       -7.777008e-01
        31         2        1.366771e-01
        32         2       -2.344677e+00
        33         2        1.152741e+00
        34         2        4.560870e-01
        35         2       -2.036657e-02
        36         2       -1.452653e+00
        37         2        1.264864e+00
        38         2        1.433582e+00
        39         2        1.572607e+00
        40         2        5.037525e-01
        41         2        1.347479e+00
        42         2       -9.582792e-01
        43         2        8.985194e-01
        44         2       -1.521186e+00
        45         2        3.962489e-01
        46         2        1.697883e-01
        47         2        1.773314e+00
        48         2        5.466436e-01
        49         2       -7.268532e-01
        50         2        4.899421e-01
        51         2        1.514112e+00
        52         2       -2.455321e-01
        53         2       -7.588392e-01
        54         2        8.268842e-01
        55         2        1.280728e+00
        56         2        5.045917e-01
        57         2       -1.024137e+00
        58         2       -5.937537e-01
        59         2        6.313902e-01
        60         2        4.920192e-01
        61         2       -1.509289e+00
        62         2        1.551411e-01
        63         2       -1.147351e+00
        64         2       -8.247020e-03
        65         2        1.537684e+00
        66         2       -2.503301e-01
        67         2        2.993655e-02
        68         2        1.489998e+00
        69         2        4.349518e-01
        70         2       -5.337402e-01
        71         2        3.482276e-01
        72         2        1.013596e+00
        73         2       -1.576740e-01
        74         2       -1.620899e+00
        75         2        1.592885e-01
        76         2       -1.166080e+00
        77         2       -1.343198e-01
        78         2        2.980681e-01
        79         2       -1.892228e+00
        80         2       -9.517996e-01
        81         2        1.236176e+00
        82         2       -1.395484e+00
        83         2        1.475962e-01
        84         2        2.765842e-01
        85         2        3.790901e-01
        86         2        3.915539e-01
        87         2       -4.783184e-01
        88         2       -6.853887e-01
        89         2       -9.408546e-01
        90         2        4.850488e-01
        91         2       -8.398007e-02
        92         2       -5.356727e-01
        93         2        3.176206e-01
        94         2        1.616010e-01
        95         2       -1.568529e-01
        96         2        6.196824e-01
        97         2       -1.133281e+00
        98         2       -1.142453e-02
        99         2        3.712533e-01
       100         2       -1.905689e-01
         1         3       -5.986116e-01
         2         3       -7.560773e-01
         3         3        3.119719e-01
         4         3       -1.815255e+00
         5         3       -1.556889e-01
         6         3       -7.660811e-01
         7         3        1.103938e+00
         8         3        4.463774e-01
         9         3       -4.054030e-01
        10         3       -1.642809e+00
        11         3        8.119712e-01
        12         3       -1.836426e-01
        13         3       -3.641349e-01
        14         3       -8.034553e-01
        15         3        1.122872e+00
        16         3       -7.495242e-01
        17         3       -1.073862e-01
        18         3        6.933601e-01
        19         3        5.386793e-01
        20         3        3.140284e-01
        21         3        1.609598e-01
        22         3        1.461706e+00
        23         3       -7.066769e-01
        24         3        6.210923e-02
        25         3       -1.113116e+00
        26         3        1.115836e+00
        27         3        1.264406e-01
        28         3       -6.730674e-01
        29         3       -1.141501e+00
        30         3       -4.404583e-01
        31         3       -1.199771e+00
        32         3        4.693517e-01
        33         3       -2.361038e-01
        34         3        8.910262e-01
        35         3        1.055090e-02
        36         3       -2.890833e-01
        37         3       -1.535248e-01
        38         3        1.184609e-01
        39         3       -1.158137e+00
        40         3       -1.692576e-01
        41         3       -2.850119e-02
        42         3       -2.004448e+00
        43         3        1.096697e+00
        44         3       -6.203827e-01
        45         3       -2.488926e-01
        46         3       -1.154677e+00
        47         3        2.208073e-01
        48         3        5.424154e-02
        49         3       -1.631597e+00
        50         3       -5.551683e-01
        51         3       -1.597896e+00
        52         3       -1.045161e-01
        53         3        1.506825e+00
        54         3       -8.120191e-01
        55         3       -3.541906e-01
        56         3       -1.240067e+00
        57         3        3.187383e-01
        58         3       -1.286648e-01
        59         3        9.751576e-01
        60         3       -3.893469e-01
        61         3       -6.370284e-01
        62         3        5.920059e-02
        63         3       -7.275485e-01
        64         3       -1.957451e+00
        65         3       -1.358113e+00
        66         3       -6.290057e-01
        67         3        1.864962e+00
        68         3       -6.630686e-02
        69         3       -6.554122e-02
        70         3       -3.106431e-01
        71         3       -1.447542e+00
        72         3       -1.303010e+00
        73         3        8.554227e-01
        74         3       -7.582873e-01
        75         3       -3.512358e-01
        76         3       -4.301032e-01
        77         3       -2.028851e+00
        78         3       -5.780026e-01
        79         3       -5.665614e-01
        80         3        1.138293e+00
        81         3        8.704253e-02
        82         3       -1.233592e+00
        83         3        1.697792e+00
        84         3        3.251865e-01
        85         3       -1.844868e+00
        86         3       -8.027854e-01
        87         3       -1.143937e+00
        88         3       -4.035053e-01
        89         3       -8.810618e-01
        90         3       -6.900704e-03
        91         3        1.418226e+00
        92         3       -2.600892e-01
        93         3        6.608136e-01
        94         3       -3.030339e-01
        95         3        1.381957e+00
        96         3        2.351935e+00
        97         3        1.215583e-01
        98         3        9.415244e-02
        99         3        4.517885e-01
       100         3        6.391696e-01
         1         4       -4.650772e-01
         2         4        4.066352e-01
         3         4       -9.571716e-01
         4         4        8.476709e-01
         5         4       -3.167449e-01
         6         4        5.826752e-01
         7         4       -2.451506e-01
         8         4       -2.322842e+00
         9         4        8.325659e-01
        10         4        4.615264e-02
        11         4       -8.333917e-02
        12         4        6.612763e-01
        13         4        3.900984e-01
        14         4       -4.470078e-01
        15         4        3.715504e-02
        16         4        1.298252e+00
        17         4       -2.098277e+00
        18         4        9.773092e-01
        19         4       -2.392387e-01
        20         4        2.421705e+00
        21         4        1.455493e+00
        22         4       -1.674745e+00
        23         4       -5.572366e-01
        24         4        7.271560e-01
        25         4        2.104415e+00
        26         4        6.787311e-01
        27         4        1.934162e-01
        28         4       -9.533860e-01
        29         4        8.005588e-01
        30         4        3.953778e-01
        31         4        6.380971e-01
        32         4        5.481865e-01
        33         4        1.991586e-01
        34         4        6.008484e-01
        35         4        2.803463e-01
        36         4       -6.647142e-01
        37         4       -2.405947e+00
        38         4       -9.412103e-01
        39         4        2.021116e-01
        40         4       -1.160246e+00
        41         4        1.308376e+00
        42         4        8.892071e-01
        43         4       -1.096298e+00
        44         4        1.193181e+00
        45         4        1.558623e+00
        46         4        2.326139e+00
        47         4        4.384845e-01
        48         4       -8.141839e-01
        49         4       -1.399196e+00
        50         4       -2.956528e-01
        51         4        1.865206e+00
        52         4       -1.271725e-01
        53         4        2.110323e+00
        54         4        4.878117e-02
        55         4        7.953439e-01
        56         4        1.533843e+00
        57         4        3.725020e-01
        58         4       -6.797601e-01
        59         4        3.128725e-01
        60         4       -1.329657e+00
        61         4       -4.270818e-01
        62         4        7.896379e-01
        63         4        9.168021e-01
        64         4        1.853330e+00
        65         4       -7.346822e-01
        66         4        1.761590e+00
        67         4        1.988838e+00
        68         4       -5.232137e-01
        69         4       -5.450981e-02
        70         4       -1.438929e+00
        71         4        1.242672e+00
        72         4        5.286449e-01
        73         4        8.228470e-01
        74         4       -1.109839e+00
        75         4        1.556545e+00
        76         4       -5.104141e-01
        77         4       -1.281246e+00
        78         4       -5.699219e-01
        79         4        9.288910e-01
        80         4        4.697603e-02
        81         4        1.699895e+00
        82         4        6.803035e-01
        83         4       -6.960278e-01
        84         4        7.470306e-01
        85         4       -7.967786e-01
        86         4        7.760380e-01
        87         4        1.828635e-01
        88         4        4.430193e-01
        89         4        1.679403e+00
        90         4       -5.039088e-01
        91         4       -1.524755e-02
        92         4       -4.656357e-01
        93         4       -2.933656e-01
        94         4        3.668283e-02
        95         4       -1.481294e-01
        96         4       -3.188701e-01
        97         4       -1.056094e+00
        98         4        8.573573e-01
        99         4       -1.308301e+00
       100         4        6.458338e-01
         1         5       -4.286496e-01
         2         5        5.686473e-01
         3         5       -1.032715e-01
         4         5        1.835380e-02
         5         5       -5.448778e-01
         6         5        3.258046e-01
         7         5        4.335588e-01
         8         5       -7.206448e-01
         9         5       -3.092292e-01
        10         5        4.263074e-01
        11         5        2.552044e-01
        12         5       -7.985300e-01
        13         5       -1.118594e+00
        14         5       -2.491825e+00
        15         5       -3.439639e-01
        16         5        6.195881e-01
        17         5       -8.302503e-01
        18         5        2.798923e-01
        19         5       -2.663858e-01
        20         5        2.012601e+00
        21         5       -7.469827e-01
        22         5       -1.131529e+00
        23         5       -9.407642e-01
        24         5       -1.766583e+00
        25         5        1.936494e+00
        26         5       -7.951536e-01
        27         5        1.331737e+00
        28         5       -1.561734e+00
        29         5        1.103892e-01
        30         5       -1.371788e+00
        31         5       -8.341340e-01
        32         5       -2.998481e-01
        33         5       -1.066065e+00
        34         5       -1.393815e+00
        35         5       -1.063890e+00
        36         5       -1.682686e-01
        37         5       -1.499705e+00
        38         5        6.394111e-01
        39         5        3.434185e-01
        40         5       -7.032338e-01
        41         5       -6.912688e-01
        42         5       -3.202365e-01
        43         5        7.380805e-01
        44         5        7.222654e-01
        45         5       -7.104611e-01
        46         5        5.015360e-01
        47         5        8.307588e-01
        48         5        6.514489e-01
        49         5       -1.859417e+00
        50         5       -5.937963e-01
        51         5       -8.484886e-01
        52         5       -1.083189e+00
        53         5        2.007287e+00
        54         5       -1.464067e+00
        55         5        2.549534e-01
        56         5       -2.292639e-01
        57         5        8.064007e-01
        58         5        3.413274e-01
        59         5       -9.791881e-01
        60         5        9.046960e-01
        61         5        5.490381e-01
        62         5        3.665095e-01
        63         5       -8.540836e-01
        64         5        4.464057e-01
        65         5        1.387244e+00
        66         5        5.145879e-01
        67         5       -9.632024e-01
        68         5       -2.403865e-01
        69         5        7.343919e-01
        70         5        1.863609e+00
        71         5        8.225216e-01
        72         5        3.443181e-01
        73         5       -1.327761e-01
        74         5       -3.212990e-01
        75         5       -2.503138e-01
        76         5       -8.914509e-01
        77         5       -4.514544e-01
        78         5        6.892621e-01
        79         5       -5.510950e-01
        80         5       -5.846559e-01
        81         5        8.974113e-01
        82         5       -2.214175e+00
        83         5       -1.794864e+00
        84         5        1.521795e-01
        85         5        6.910007e-01
        86         5       -8.764563e-01
        87         5       -1.250887e+00
        88         5        2.683290e-03
        89         5       -6.889017e-01
        90         5       -1.793803e+00
        91         5       -6.116298e-01
        92         5       -2.134519e-01
        93         5        1.408662e+00
        94         5       -3.257105e-01
        95         5        5.128901e-01
        96         5        1.015790e+00
        97         5       -5.457793e-02
        98         5       -8.798811e-01
        99         5       -9.742315e-01
       100         5        3.086552e-02
;

param theta:=
    1        8.691747e-01
    2        1.115279e+00
    3       -1.877862e+00
    4        2.173998e+00
    5       -6.021684e-01
;
param X_true:=
    1        7.973858e-01
    2        9.978017e-01
    3       -4.300554e+00
    4        4.936152e+00
    5        2.379426e+00
    6        3.128137e+00
    7       -4.763310e+00
    8       -4.857978e+00
    9        3.631295e+00
   10        3.579911e+00
   11       -2.879526e+00
   12        7.077575e-01
   13        4.227735e-01
   14        2.962476e+00
   15       -1.105531e+00
   16        3.530742e+00
   17       -5.069702e+00
   18        3.950683e+00
   19        1.454677e-01
   20        1.782557e+00
   21        3.705289e+00
   22       -8.322696e+00
   23        2.056936e-01
   24        2.340034e+00
   25        5.128978e+00
   26       -1.343546e+00
   27        1.430667e+00
   28        3.228671e+00
   29        5.778516e+00
   30        1.491117e+00
   31        5.616416e+00
   32       -2.124205e+00
   33        2.391344e+00
   34        2.257121e+00
   35        2.151936e-01
   36       -1.253918e+00
   37       -2.554341e+00
   38       -1.623353e+00
   39        3.965329e+00
   40        1.051022e+00
   41        4.882069e+00
   42        3.791996e+00
   43       -6.154674e+00
   44        1.481392e+00
   45        4.292559e+00
   46        6.628030e+00
   47        1.392406e+00
   48       -1.537352e+00
   49        1.626059e-01
   50        1.016998e+00
   51        9.907242e+00
   52        9.996963e-01
   53       -2.090975e-01
   54        3.442317e+00
   55        3.892854e+00
   56        7.038362e+00
   57       -3.188415e+00
   58       -1.965406e+00
   59       -3.719699e-01
   60       -2.440368e+00
   61       -3.025227e+00
   62        1.979941e+00
   63        3.593272e+00
   64        6.427312e+00
   65        1.593088e+00
   66        5.146584e+00
   67        1.762291e-01
   68        1.128271e+00
   69       -1.163651e+00
   70       -4.571860e+00
   71        5.301564e+00
   72        4.978765e+00
   73       -1.115959e+00
   74       -2.260799e+00
   75        4.055698e+00
   76       -9.250610e-01
   77        1.927208e+00
   78        4.440970e-02
   79        1.061078e+00
   80       -2.384668e+00
   81        3.839523e+00
   82        4.562299e+00
   83       -3.792868e+00
   84        4.232516e-01
   85        1.831246e+00
   86        4.478409e+00
   87        2.830330e+00
   88       -4.426731e-02
   89        4.697957e+00
   90        6.682150e-01
   91       -3.907618e+00
   92       -2.632409e-01
   93       -3.129989e+00
   94        1.040434e+00
   95       -2.751797e+00
   96       -3.773797e+00
   97       -3.195952e+00
   98        1.075105e+00
   99       -3.363470e+00
  100       -1.150697e-01
;
param X:=
    1       -2.364976e-02
    2       -1.630578e+00
    3       -1.131762e+00
    4        1.409442e+00
    5       -6.163639e-01
    6        3.128137e+00
    7       -1.547640e+00
    8       -1.222139e+00
    9       -4.421527e-02
   10        3.579911e+00
   11       -9.746589e-02
   12        1.359343e+00
   13       -1.453495e-01
   14        1.069231e-01
   15        1.584109e+00
   16        8.993246e-01
   17        7.495220e-01
   18        3.930043e-01
   19        1.454677e-01
   20        2.243719e-01
   21        9.820431e-01
   22       -8.322696e+00
   23        2.056936e-01
   24        2.340034e+00
   25        2.416140e-01
   26       -9.419814e-01
   27       -3.680945e-01
   28       -2.206245e-01
   29        5.778516e+00
   30        1.491117e+00
   31        5.616416e+00
   32        1.254092e+00
   33       -1.283940e-01
   34       -1.264557e+00
   35       -4.461206e-01
   36        2.303422e-01
   37       -2.554341e+00
   38       -1.918273e+00
   39       -1.209567e+00
   40        1.051022e+00
   41       -5.530326e-01
   42       -9.917724e-01
   43       -6.154674e+00
   44        9.332759e-01
   45        1.562371e+00
   46        8.940648e-01
   47        1.392406e+00
   48        9.378503e-01
   49        2.507233e-01
   50       -2.377939e-01
   51       -1.710424e+00
   52        9.996963e-01
   53       -2.090975e-01
   54       -1.123876e+00
   55        7.775763e-01
   56       -9.874058e-01
   57       -7.725652e-02
   58       -1.103164e+00
   59        5.261374e-01
   60        2.360378e-01
   61        6.585261e-01
   62        4.314871e-01
   63        1.060716e+00
   64        3.111430e-01
   65        1.946635e-01
   66       -9.257826e-02
   67       -3.865061e-01
   68       -1.654518e+00
   69        1.052542e+00
   70        7.428181e-01
   71        2.374446e-01
   72       -5.301724e-01
   73        4.699108e-01
   74       -2.260799e+00
   75        4.055698e+00
   76        1.973384e-01
   77        6.321633e-01
   78       -5.024800e-01
   79       -1.148507e+00
   80       -5.053613e-01
   81       -1.372147e+00
   82       -1.058922e+00
   83        2.656126e-01
   84       -1.334998e+00
   85        2.038408e+00
   86        4.478409e+00
   87        2.830330e+00
   88       -5.031626e-02
   89       -4.448294e-01
   90        6.682150e-01
   91        3.520810e-01
   92        4.082762e-01
   93        3.971964e-01
   94       -1.834808e-01
   95       -2.751797e+00
   96       -4.538664e-01
   97       -9.638037e-01
   98        4.959549e-01
   99       -3.363470e+00
  100        1.439932e+00
;
param outliervec:=
    1    1
    2    1
    3    1
    4    1
    5    1
    6    0
    7    1
    8    1
    9    1
   10    0
   11    1
   12    1
   13    1
   14    1
   15    1
   16    1
   17    1
   18    1
   19    0
   20    1
   21    1
   22    0
   23    0
   24    0
   25    1
   26    1
   27    1
   28    1
   29    0
   30    0
   31    0
   32    1
   33    1
   34    1
   35    1
   36    1
   37    0
   38    1
   39    1
   40    0
   41    1
   42    1
   43    0
   44    1
   45    1
   46    1
   47    0
   48    1
   49    1
   50    1
   51    1
   52    0
   53    0
   54    1
   55    1
   56    1
   57    1
   58    1
   59    1
   60    1
   61    1
   62    1
   63    1
   64    1
   65    1
   66    1
   67    1
   68    1
   69    1
   70    1
   71    1
   72    1
   73    1
   74    0
   75    0
   76    1
   77    1
   78    1
   79    1
   80    1
   81    1
   82    1
   83    1
   84    1
   85    1
   86    0
   87    0
   88    1
   89    1
   90    0
   91    1
   92    1
   93    1
   94    1
   95    0
   96    1
   97    1
   98    1
   99    0
  100    1
;